language ESSENCE' 1.0
letting vertices=100
letting colours=18
letting edge_count=166
letting edges=[
[1, 2],
[1, 4],
[1, 12],
[1, 13],
[2, 4],
[2, 33],
[2, 34],
[3, 7],
[3, 8],
[3, 11],
[3, 32],
[4, 5],
[5, 6],
[5, 48],
[5, 49],
[6, 7],
[6, 9],
[6, 10],
[7, 92],
[8, 9],
[8, 27],
[8, 62],
[9, 74],
[10, 68],
[10, 75],
[10, 76],
[11, 13],
[11, 18],
[11, 20],
[12, 23],
[12, 59],
[13, 15],
[13, 16],
[14, 15],
[14, 16],
[14, 60],
[14, 61],
[15, 35],
[15, 44],
[16, 29],
[17, 18],
[17, 19],
[17, 24],
[17, 25],
[18, 19],
[19, 21],
[19, 22],
[20, 21],
[20, 22],
[21, 22],
[23, 24],
[23, 25],
[24, 99],
[24, 100],
[25, 51],
[25, 52],
[26, 27],
[26, 28],
[26, 70],
[26, 71],
[27, 28],
[28, 64],
[28, 77],
[29, 30],
[29, 31],
[30, 31],
[30, 36],
[30, 37],
[31, 45],
[31, 46],
[32, 33],
[32, 34],
[33, 34],
[35, 37],
[35, 39],
[35, 40],
[36, 37],
[36, 89],
[38, 39],
[38, 40],
[38, 42],
[38, 43],
[39, 40],
[41, 43],
[41, 54],
[41, 55],
[41, 56],
[42, 43],
[42, 57],
[42, 58],
[44, 45],
[44, 46],
[45, 46],
[47, 48],
[47, 49],
[47, 93],
[47, 94],
[48, 49],
[50, 65],
[50, 81],
[50, 82],
[50, 98],
[51, 52],
[51, 66],
[51, 67],
[52, 80],
[53, 54],
[53, 55],
[53, 90],
[53, 91],
[54, 55],
[56, 58],
[56, 95],
[57, 58],
[57, 96],
[57, 97],
[59, 60],
[59, 61],
[60, 61],
[62, 64],
[62, 84],
[62, 85],
[63, 64],
[63, 78],
[63, 79],
[63, 83],
[65, 66],
[65, 67],
[66, 87],
[66, 88],
[67, 86],
[68, 69],
[68, 70],
[69, 70],
[69, 72],
[69, 73],
[71, 72],
[71, 73],
[72, 73],
[74, 75],
[74, 76],
[75, 76],
[77, 78],
[77, 79],
[78, 79],
[80, 81],
[80, 82],
[81, 82],
[83, 84],
[83, 85],
[84, 85],
[86, 87],
[86, 88],
[87, 88],
[89, 90],
[89, 91],
[90, 91],
[92, 93],
[92, 94],
[93, 94],
[95, 96],
[95, 97],
[96, 97],
[98, 99],
[98, 100],
[99, 100],
]
